% Generated FlatZinc statistics:
%%%mzn-stat: paths=220142
%%%mzn-stat: flatBoolVars=2940
%%%mzn-stat: flatIntVars=8711
%%%mzn-stat: flatSetVars=5625
%%%mzn-stat: flatIntConstraints=9686
%%%mzn-stat: flatSetConstraints=7515
%%%mzn-stat: evaluatedReifiedConstraints=2940
%%%mzn-stat: method="minimize"
%%%mzn-stat: flatTime=27.7211
%%%mzn-stat-end
w = 5376; 
link_objective = 56; 
cpu_objective = 96; 
services2locs = [7, 4, 14, 12, 2, 9, 11, 10, 8, 13, 6, 4, 6, 9, 4, 4, 5, 3, 8, 6, 10, 1, 2, 3, 14, 7, 12, 10, 5, 9, 14, 6, 9, 14, 10, 14, 11, 14, 2, 3, 1, 2, 11, 8, 14, 4, 10, 14, 8, 3, 8, 10, 4, 4, 11, 6, 11, 6, 7, 6, 12, 10, 9, 6, 7, 2, 5, 8, 4, 8, 7, 3, 7, 8, 10];
locations2names = ["ECU1", "ECU2", "ECU3", "DM1", "DM2", "DM3", "CAM1", "CAM2", "CAM3", "CAM4", "Display1", "Display2", "Display3", "Display4", "Switch1", "Switch2", "Switch3", "Switch4", "Switch5"];
services2names = ["S1_C&C_1_1", "S3_Video_1", "S4_BE_1", "S4_BE_2", "S1_C&C_2_1", "S4_BE_3", "S3_Video_2", "S2_Audio_1", "S4_BE_4", "S1_C&C_2_2", "S4_BE_5", "S4_BE_6", "S4_BE_7", "S1_C&C_1_2", "S1_C&C_1_3", "S1_C&C_1_4", "S4_BE_8", "S2_Audio_2", "S2_Audio_3", "S3_Video_3", "S1_C&C_1_5", "S4_BE_9", "S4_BE_10", "S2_Audio_4", "S4_BE_11", "S1_C&C_1_6", "S3_Video_4", "S4_BE_12", "S1_C&C_1_7", "S1_C&C_2_3", "S3_Video_5", "S3_Video_6", "S3_Video_7", "S1_C&C_1_8", "S4_BE_13", "S2_Audio_5", "S1_C&C_2_4", "S1_C&C_2_5", "S1_C&C_1_9", "S2_Audio_6", "S4_BE_14", "S4_BE_15", "S1_C&C_2_6", "S1_C&C_1_10", "S1_C&C_1_11", "S2_Audio_7", "S1_C&C_2_7", "S1_C&C_1_12", "S3_Video_8", "S1_C&C_2_8", "S1_C&C_1_13", "S3_Video_9", "S4_BE_16", "S1_C&C_1_14", "S4_BE_17", "S1_C&C_1_15", "S2_Audio_8", "S1_C&C_2_9", "S1_C&C_2_10", "S4_BE_18", "S1_C&C_1_16", "S3_Video_10", "S2_Audio_9", "S4_BE_19", "S4_BE_20", "S4_BE_21", "S1_C&C_1_17", "S1_C&C_1_18", "S2_Audio_10", "S1_C&C_2_11", "S3_Video_11", "S3_Video_12", "S3_Video_13", "S4_BE_22", "S1_C&C_1_19"];
cpu_usage = [24, 60, 60, 96, 36, 96, 72, 96, 60, 96, 60, 36, 12, 96, 0, 0, 0, 0, 0]; 
slack = [46905376, 53055472, 80929184, 72859536, 79761920, 43011392, 91328784, 98376800, 99984704, 74258672, 74243376, 43593440, 64602144, 94594544, 91296784, 955597168, 81188480, 77127760]; 
charge = [53, 46, 19, 27, 20, 56, 8, 1, 0, 25, 25, 56, 35, 5, 8, 4, 18, 22]; 
----------
%%%mzn-stat: initTime=0.575833
%%%mzn-stat: solveTime=32.4069
%%%mzn-stat: solutions=13
%%%mzn-stat: variables=17281
%%%mzn-stat: propagators=17201
%%%mzn-stat: propagations=8428401
%%%mzn-stat: nodes=6344
%%%mzn-stat: failures=3105
%%%mzn-stat: restarts=0
%%%mzn-stat: peakDepth=80
%%%mzn-stat-end
%%%mzn-stat: nSolutions=1
%%%mzn-stat-end
